WARNING: for repeatability, setting FPU to use double precision
============================[ Problem Statistics ]=============================
|                                                                             |
|  Number of variables:            50                                         |
|  Number of clauses:             218                                         |
|  Parse time:                   0.00 s                                       |
|                                                                             |
============================[ Search Statistics ]==============================
| Conflicts |          ORIGINAL         |          LEARNT          | Progress |
|           |    Vars  Clauses Literals |    Limit  Clauses Lit/Cl |          |
===============================================================================
===============================================================================
restarts              : 1
conflicts             : 78             (226744 /sec)
decisions             : 86             (0.00 % random) (250000 /sec)
propagations          : 1085           (3154070 /sec)
conflict literals     : 302            (16.80 % deleted)
Memory used           : 20.00 MB
CPU time              : 0.000344 s

UNSATISFIABLE
